1086
1086
1101
1101
1124
991
1070
1067
1067
1067
1025
1025
1025
1067
1067
1078
1073
1023
1073
1073
1073
1073
1102
1102
1017
976
936
936
957
957
949
976
1038
1031
1031
985
1005
1027
1014
960
983
923
947
947
947
947
947
968
968
972
972
966
966
982
1056
987
951
883
934
934
934
936
866
971
996
996
980
980
959
959
925
925
931
931
912
931
980
980
969
921
921
932
897
897
843
843
843
843
843
904
904
939
935
921
1033
981
981
981
982
1016
